17066776229546265715013,10,1,2,07,13,1,2,07,8,1,2,05,13,1,2,06,8,1,2,09,14,1,2,010,10,1,2,014,4,1,2,012,5,1,2,09,14,1,2,03,14,1,2,010,1,1,2,012,1,1,2,010,13,1,2,011,10,1,2,08,6,1,2,03,3,1,2,013,7,1,2,03,1,1,2,011,5,1,2,03,1,1,2,010,13,1,2,03,13,1,2,07,8,1,2,06,8,1,2,08,13,1,2,014,9,1,2,04,7,1,2,03,7,1,2,010,9,1,2,013,13,1,2,03,11,1,2,02,8,1,2,04,11,1,2,04,11,1,2,01,4,1,2,01,5,1,2,09,1,1,2,03,13,1,2,05,4,1,2,010,15,1,2,02,7,1,2,015,12,1,2,04,12,1,2,02,9,1,2,05,3,1,2,07,9,1,2,01,12,1,2,05,6,1,2,07,10,1,2,0